src/asp/benchmarks/medium8.lp
citta(san_giustino).
citta(orvieto).
citta(assisi).
citta(gubbio).
citta(amelia).
citta(gualdo_tardino).

richiesta(san_giustino, strade, 17).
richiesta(san_giustino, fiumi, 2).
richiesta(san_giustino, scuole, 12).
richiesta(san_giustino, parchi, 7).
richiesta(san_giustino, energia, 3).

richiesta(orvieto, strade, 46).
richiesta(orvieto, fiumi, 26).
richiesta(orvieto, scuole, 18).
richiesta(orvieto, parchi, 68).
richiesta(orvieto, energia, 14).

richiesta(assisi, strade, 92).
richiesta(assisi, fiumi, 34).
richiesta(assisi, scuole, 43).
richiesta(assisi, parchi, 142).
richiesta(assisi, energia, 25).

richiesta(gubbio, strade, 6).
richiesta(gubbio, fiumi, 31).
richiesta(gubbio, scuole, 29).
richiesta(gubbio, parchi, 63).
richiesta(gubbio, energia, 26).

richiesta(amelia, strade, 9).
richiesta(amelia, fiumi, 14).
richiesta(amelia, scuole, 124).
richiesta(amelia, parchi, 59).
richiesta(amelia, energia, 2).

richiesta(gualdo_tardino, strade, 10).
richiesta(gualdo_tardino, fiumi, 12).
richiesta(gualdo_tardino, scuole, 37).
richiesta(gualdo_tardino, parchi, 2).
richiesta(gualdo_tardino, energia, 12).

