src/minizinc/benchmarks/medium8.dzn
COMUNI = {
	citta_di_castello,
	bastia_umbra,
	perugia,
	gubbio,
	amelia,
	todi,
	assisi,
	orvieto,
};

NUMERO_COMUNI = 8;

ABITANTI_PER_COMUNE = [38, 21, 161, 30, 11, 15, 27, 19];

STRADE_TRA_COMUNI = [|
	false, false, false, false, false, false, false, false |
	false, false, true, false, false, false, true, false |
	false, true, false, false, false, false, false, false |
	false, false, false, false, false, false, false, false |
	false, false, false, false, false, true, false, false |
	false, false, false, false, true, false, false, true |
	false, true, false, false, false, false, false, false |
	false, false, false, false, false, true, false, false |
|];

RICHIESTE = [|
	1, 13, 53, 0, 3 |
	22, 17, 29, 21, 7 |
	2, 83, 77, 2, 39 |
	54, 28, 37, 70, 29 |
	2, 9, 58, 20, 27 |
	20, 12, 18, 21, 11 |
	38, 58, 0, 34, 0 |
	11, 15, 24, 14, 2 |
|];
